20 10
36 74 37 205 11 1 1 30 7 44
135 21 14 33 132 76 28 91 19 12
85 39 3 45 23 3 33 2 72 44
36 95 125 83 4 7 56 14 9 1
25 107 20 11 12 70 179 27 97 56
23 250 14 10 48 25 2 127 14 163
1 115 21 16 76 10 27 7 124 1
83 104 52 12 64 10 9 132 56 51
32 18 47 65 75 27 1 8 69 11
21 6 167 34 36 21 30 18 21 112
54 7 55 64 126 29 22 103 3 53
7 86 69 77 34 133 16 27 23 58
11 13 67 20 3 70 32 12 72 1
65 1 64 21 26 21 182 6 62 58
2 23 82 56 4 118 1 13 4 26
142 161 61 1 27 78 55 32 19 42
70 15 85 151 4 38 51 12 40 20
98 7 28 69 40 42 79 15 123 121
27 16 16 39 136 20 40 32 56 117
2 57 36 8 35 37 30 153 30 90
